data;

param n:=27;
param p:=3;
param r:=[1] 0 [2] 2 [3] 3 [4] 2 [5] 10 [6] 13 [7] 2 [8] 13 [9] 20 [10] 21 [11] 9 [12] 2 [13] 1 [14] 4 [15] 26 [16] 19 [17] 10 [18] 32 [19] 3 [20] 4 [21] 13 [22] 47 [23] 18 [24] 45 [25] 44 [26] 36 [27] 2 ;
param w:=[1] 3 [2] 31 [3] 32 [4] 65 [5] 69 [6] 78 [7] 1 [8] 90 [9] 56 [10] 97 [11] 85 [12] 29 [13] 1 [14] 4 [15] 25 [16] 30 [17] 28 [18] 18 [19] 36 [20] 41 [21] 15 [22] 88 [23] 33 [24] 62 [25] 84 [26] 49 [27] 90 ;

end;
